n = 32;
rows = 448;
supports = [|
    1,1,
  | 1,11,
  | 1,12,
  | 1,13,
  | 1,14,
  | 1,15,
  | 1,16,
  | 1,17,
  | 1,18,
  | 1,19,
  | 1,20,
  | 1,21,
  | 1,22,
  | 1,23,
  | 2,2,
  | 2,12,
  | 2,13,
  | 2,14,
  | 2,15,
  | 2,16,
  | 2,17,
  | 2,18,
  | 2,19,
  | 2,20,
  | 2,21,
  | 2,22,
  | 2,23,
  | 2,24,
  | 3,3,
  | 3,13,
  | 3,14,
  | 3,15,
  | 3,16,
  | 3,17,
  | 3,18,
  | 3,19,
  | 3,20,
  | 3,21,
  | 3,22,
  | 3,23,
  | 3,24,
  | 3,25,
  | 4,4,
  | 4,14,
  | 4,15,
  | 4,16,
  | 4,17,
  | 4,18,
  | 4,19,
  | 4,20,
  | 4,21,
  | 4,22,
  | 4,23,
  | 4,24,
  | 4,25,
  | 4,26,
  | 5,5,
  | 5,15,
  | 5,16,
  | 5,17,
  | 5,18,
  | 5,19,
  | 5,20,
  | 5,21,
  | 5,22,
  | 5,23,
  | 5,24,
  | 5,25,
  | 5,26,
  | 5,27,
  | 6,6,
  | 6,16,
  | 6,17,
  | 6,18,
  | 6,19,
  | 6,20,
  | 6,21,
  | 6,22,
  | 6,23,
  | 6,24,
  | 6,25,
  | 6,26,
  | 6,27,
  | 6,28,
  | 7,7,
  | 7,17,
  | 7,18,
  | 7,19,
  | 7,20,
  | 7,21,
  | 7,22,
  | 7,23,
  | 7,24,
  | 7,25,
  | 7,26,
  | 7,27,
  | 7,28,
  | 7,29,
  | 8,8,
  | 8,18,
  | 8,19,
  | 8,20,
  | 8,21,
  | 8,22,
  | 8,23,
  | 8,24,
  | 8,25,
  | 8,26,
  | 8,27,
  | 8,28,
  | 8,29,
  | 8,30,
  | 9,9,
  | 9,19,
  | 9,20,
  | 9,21,
  | 9,22,
  | 9,23,
  | 9,24,
  | 9,25,
  | 9,26,
  | 9,27,
  | 9,28,
  | 9,29,
  | 9,30,
  | 9,31,
  | 10,10,
  | 10,20,
  | 10,21,
  | 10,22,
  | 10,23,
  | 10,24,
  | 10,25,
  | 10,26,
  | 10,27,
  | 10,28,
  | 10,29,
  | 10,30,
  | 10,31,
  | 10,32,
  | 11,1,
  | 11,11,
  | 11,21,
  | 11,22,
  | 11,23,
  | 11,24,
  | 11,25,
  | 11,26,
  | 11,27,
  | 11,28,
  | 11,29,
  | 11,30,
  | 11,31,
  | 11,32,
  | 12,1,
  | 12,2,
  | 12,12,
  | 12,22,
  | 12,23,
  | 12,24,
  | 12,25,
  | 12,26,
  | 12,27,
  | 12,28,
  | 12,29,
  | 12,30,
  | 12,31,
  | 12,32,
  | 13,1,
  | 13,2,
  | 13,3,
  | 13,13,
  | 13,23,
  | 13,24,
  | 13,25,
  | 13,26,
  | 13,27,
  | 13,28,
  | 13,29,
  | 13,30,
  | 13,31,
  | 13,32,
  | 14,1,
  | 14,2,
  | 14,3,
  | 14,4,
  | 14,14,
  | 14,24,
  | 14,25,
  | 14,26,
  | 14,27,
  | 14,28,
  | 14,29,
  | 14,30,
  | 14,31,
  | 14,32,
  | 15,1,
  | 15,2,
  | 15,3,
  | 15,4,
  | 15,5,
  | 15,15,
  | 15,25,
  | 15,26,
  | 15,27,
  | 15,28,
  | 15,29,
  | 15,30,
  | 15,31,
  | 15,32,
  | 16,1,
  | 16,2,
  | 16,3,
  | 16,4,
  | 16,5,
  | 16,6,
  | 16,16,
  | 16,26,
  | 16,27,
  | 16,28,
  | 16,29,
  | 16,30,
  | 16,31,
  | 16,32,
  | 17,1,
  | 17,2,
  | 17,3,
  | 17,4,
  | 17,5,
  | 17,6,
  | 17,7,
  | 17,17,
  | 17,27,
  | 17,28,
  | 17,29,
  | 17,30,
  | 17,31,
  | 17,32,
  | 18,1,
  | 18,2,
  | 18,3,
  | 18,4,
  | 18,5,
  | 18,6,
  | 18,7,
  | 18,8,
  | 18,18,
  | 18,28,
  | 18,29,
  | 18,30,
  | 18,31,
  | 18,32,
  | 19,1,
  | 19,2,
  | 19,3,
  | 19,4,
  | 19,5,
  | 19,6,
  | 19,7,
  | 19,8,
  | 19,9,
  | 19,19,
  | 19,29,
  | 19,30,
  | 19,31,
  | 19,32,
  | 20,1,
  | 20,2,
  | 20,3,
  | 20,4,
  | 20,5,
  | 20,6,
  | 20,7,
  | 20,8,
  | 20,9,
  | 20,10,
  | 20,20,
  | 20,30,
  | 20,31,
  | 20,32,
  | 21,1,
  | 21,2,
  | 21,3,
  | 21,4,
  | 21,5,
  | 21,6,
  | 21,7,
  | 21,8,
  | 21,9,
  | 21,10,
  | 21,11,
  | 21,21,
  | 21,31,
  | 21,32,
  | 22,1,
  | 22,2,
  | 22,3,
  | 22,4,
  | 22,5,
  | 22,6,
  | 22,7,
  | 22,8,
  | 22,9,
  | 22,10,
  | 22,11,
  | 22,12,
  | 22,22,
  | 22,32,
  | 23,1,
  | 23,2,
  | 23,3,
  | 23,4,
  | 23,5,
  | 23,6,
  | 23,7,
  | 23,8,
  | 23,9,
  | 23,10,
  | 23,11,
  | 23,12,
  | 23,13,
  | 23,23,
  | 24,2,
  | 24,3,
  | 24,4,
  | 24,5,
  | 24,6,
  | 24,7,
  | 24,8,
  | 24,9,
  | 24,10,
  | 24,11,
  | 24,12,
  | 24,13,
  | 24,14,
  | 24,24,
  | 25,3,
  | 25,4,
  | 25,5,
  | 25,6,
  | 25,7,
  | 25,8,
  | 25,9,
  | 25,10,
  | 25,11,
  | 25,12,
  | 25,13,
  | 25,14,
  | 25,15,
  | 25,25,
  | 26,4,
  | 26,5,
  | 26,6,
  | 26,7,
  | 26,8,
  | 26,9,
  | 26,10,
  | 26,11,
  | 26,12,
  | 26,13,
  | 26,14,
  | 26,15,
  | 26,16,
  | 26,26,
  | 27,5,
  | 27,6,
  | 27,7,
  | 27,8,
  | 27,9,
  | 27,10,
  | 27,11,
  | 27,12,
  | 27,13,
  | 27,14,
  | 27,15,
  | 27,16,
  | 27,17,
  | 27,27,
  | 28,6,
  | 28,7,
  | 28,8,
  | 28,9,
  | 28,10,
  | 28,11,
  | 28,12,
  | 28,13,
  | 28,14,
  | 28,15,
  | 28,16,
  | 28,17,
  | 28,18,
  | 28,28,
  | 29,7,
  | 29,8,
  | 29,9,
  | 29,10,
  | 29,11,
  | 29,12,
  | 29,13,
  | 29,14,
  | 29,15,
  | 29,16,
  | 29,17,
  | 29,18,
  | 29,19,
  | 29,29,
  | 30,8,
  | 30,9,
  | 30,10,
  | 30,11,
  | 30,12,
  | 30,13,
  | 30,14,
  | 30,15,
  | 30,16,
  | 30,17,
  | 30,18,
  | 30,19,
  | 30,20,
  | 30,30,
  | 31,9,
  | 31,10,
  | 31,11,
  | 31,12,
  | 31,13,
  | 31,14,
  | 31,15,
  | 31,16,
  | 31,17,
  | 31,18,
  | 31,19,
  | 31,20,
  | 31,21,
  | 31,31,
  | 32,10,
  | 32,11,
  | 32,12,
  | 32,13,
  | 32,14,
  | 32,15,
  | 32,16,
  | 32,17,
  | 32,18,
  | 32,19,
  | 32,20,
  | 32,21,
  | 32,22,
  | 32,32 |];

t = 90;

indexes = [|
    0,6,
  | 0,13,
  | 0,15,
  | 1,8,
  | 1,21,
  | 1,22,
  | 1,26,
  | 1,30,
  | 2,5,
  | 2,22,
  | 2,27,
  | 2,29,
  | 2,30,
  | 3,7,
  | 3,8,
  | 3,9,
  | 3,20,
  | 3,23,
  | 3,25,
  | 3,27,
  | 4,16,
  | 4,19,
  | 4,23,
  | 4,30,
  | 5,10,
  | 5,14,
  | 5,25,
  | 6,13,
  | 6,15,
  | 6,17,
  | 6,20,
  | 6,23,
  | 7,15,
  | 7,16,
  | 7,21,
  | 7,31,
  | 8,9,
  | 8,29,
  | 9,21,
  | 9,26,
  | 9,28,
  | 10,11,
  | 10,16,
  | 10,24,
  | 10,25,
  | 10,27,
  | 10,29,
  | 11,13,
  | 11,18,
  | 11,20,
  | 12,17,
  | 12,18,
  | 12,20,
  | 14,26,
  | 14,28,
  | 14,29,
  | 15,16,
  | 15,17,
  | 15,20,
  | 15,21,
  | 15,22,
  | 15,23,
  | 15,25,
  | 15,26,
  | 16,31,
  | 17,18,
  | 17,21,
  | 17,22,
  | 17,25,
  | 17,26,
  | 17,27,
  | 18,24,
  | 18,29,
  | 18,30,
  | 18,31,
  | 19,20,
  | 19,25,
  | 20,25,
  | 20,27,
  | 20,31,
  | 21,28,
  | 22,28,
  | 22,29,
  | 23,25,
  | 23,27,
  | 24,28,
  | 26,31,
  | 27,29,
  | 27,31,
  | 30,31 |];

